c THERE IS SOME ERROR
c 1 = a
c 2 = b
c 3 = c
c 4 = x1
c 5 = x2
c 6 = x3
c 7 = x4
c 8 = o1
c 9 = x5
c 10 = o2

p cnf 10 23
c (x1 <->  a && b)
4 -1 -2 0
-4 1 0
-4 2 0

c (x2 <-> b || c)
-5 2 3 0
5 -2 0
5 -3 0

c (x3 <-> b && c)
6 -2 -3 0
-6 3 0
-6 2 0

c (x4 <-> x2 && x3)
7 -5 -6 0
-7 5 0
-7 6 0

c (o1 <-> x1 || x4)
-8 4 7 0
8 -4 0
8 -7 0

c (x5 <-> a || c)
-9 1 3 0
9 -1 0
9 -3 0

c (o2 <-> x5 && b)
10 -2 -9 0
-10 2 0
-10 9 0

c (o1 not <-> o2)
8 10 0
-8 -10 0

c is unsat -> are the same

